peakDumbCharging = 22200; 
Machine = anon_enum(16); 
machineSpeed = [3700,3700,3700,3700,3700,3700,3700,3700,3700,3700,3700,3700,3700,3700,3700,3700]; 
machineLoad = [3700,3700,3700,3700,3700,3700,3700,3700,3700,3700,3700,3700,3700,3700,3700,3700]; 
Car = anon_enum(28); 
demandCar = [13640,3880,7600,8480,7640,6600,14480,4160,960,2240,10520,14640,9640,21280,12800,3200,10840,13560,7040,5360,5080,1520,3920,6640,40720,8880,31160,35960]; 
arrivalCar = [63,62,62,61,59,57,57,56,56,56,53,51,51,48,48,47,47,41,39,39,38,38,37,36,30,29,28,22]; 
departureCar = [68,66,67,67,63,61,65,60,60,58,57,60,57,55,53,49,52,49,44,42,42,39,40,39,56,36,55,39]; 
